0110000000
1001100000
1001001000
0110101000
0101010100
0000100100
0011000010
0000110010
0000001101
0000000010

0111000000
1000100010
1000001100
1000010001
0100010100
0001101000
0010010010
0010100001
0100001001
0001000110